NAME: rd100.pc.opt.tour
COMMENT: Found by pc_tsp [Arno Formella]
COMMENT: Length 7910.4 (unrounded)
TYPE: TOUR
DIMENSION: 100
TOUR_SECTION
28
34
50
59
67
74
79
80
76
73
72
71
69
63
60
57
52
44
40
27
21
11
6
3
13
15
10
8
1
4
17
23
18
19
16
25
31
30
32
35
33
36
39
43
42
45
47
46
41
48
51
54
62
64
68
66
61
55
65
70
75
77
84
92
100
95
98
89
87
88
85
97
93
91
96
90
81
83
82
94
99
86
78
58
53
56
49
37
38
29
22
7
2
5
9
20
24
12
14
26
-1
EOF
